(set-logic BV) (define-fun origCir ((n292 Bool) (n335 Bool) (n298 Bool) (n307 Bool)) Bool (xor (and (and n335 n298) n292) n307)) (synth-fun skel ((n292 Bool) (n335 Bool) (n298 Bool) (n307 Bool)) Bool) (declare-var n292 Bool) (declare-var n335 Bool) (declare-var n298 Bool) (declare-var n307 Bool) (constraint (= (origCir n292 n335 n298 n307) (skel n292 n335 n298 n307))) (check-synth)
